c Random 7-CNF over 30 variables and 90 clauses
c Generated with `cnfgen`
c (C) 2012-2016 Massimo Lauria <lauria.massimo@gmail.com>
c https://massimolauria.github.io/cnfgen
c
c COMMAND LINE: cnfgen --output tmp-7-30-90.dimacs --output-format dimacs randkcnf 7 30 90
c
c sdimacs generated by gen-sdimacs
c
p cnf 30 90
r 0.5 1 2 3 4 5 6 7 8 9 10 11 12 13 14 15 0
e  16 17 18 19 20 21 22 23 24 25 26 27 28 29 30 0
-1 3 14 -19 23 28 29 0
10 -11 -15 -16 22 23 -30 0
7 8 -11 19 20 -24 -30 0
-2 -10 13 22 -23 -25 -30 0
2 14 -15 16 20 -29 -30 0
-4 8 14 16 -20 23 -24 0
5 -6 11 -20 -21 -22 28 0
-2 4 -9 15 17 19 28 0
-2 -3 6 16 21 27 30 0
3 5 17 -20 28 -29 30 0
8 -9 -15 -23 -24 28 29 0
1 4 -6 8 -11 17 29 0
-4 -11 -13 16 -19 24 27 0
13 14 19 20 23 29 30 0
17 19 20 22 -25 27 -29 0
1 7 9 -12 18 21 -22 0
-4 7 -11 -18 21 25 -28 0
7 8 15 -22 23 26 27 0
-6 10 16 -17 -19 -22 23 0
1 -9 10 -17 24 28 30 0
3 -6 -17 18 -22 -24 30 0
-1 13 -14 -26 27 28 -30 0
-16 17 -18 20 23 -24 28 0
-1 3 12 16 17 27 -28 0
3 14 17 -18 -19 -23 -29 0
-4 11 14 -16 22 -28 29 0
7 13 -22 23 -24 -27 -28 0
-2 5 10 -13 18 -27 -28 0
3 8 11 14 -18 26 27 0
-7 9 12 17 -21 -25 -28 0
-7 10 11 -18 22 -27 -30 0
-5 9 11 19 -21 -27 -30 0
-1 7 8 11 -13 18 -25 0
-1 -6 -13 14 19 -26 28 0
-1 -3 4 -16 18 19 27 0
7 -9 12 13 16 23 -27 0
-8 -9 13 15 19 20 -23 0
6 -8 -14 -17 21 25 26 0
-2 -13 18 -19 -22 -24 29 0
7 9 15 17 -22 -25 -30 0
-2 -8 17 19 -20 -24 -26 0
-1 -3 -4 -9 13 -17 25 0
-3 6 -8 -17 -19 21 30 0
-2 8 11 13 17 18 19 0
1 -9 -10 12 -13 -15 25 0
1 -2 -6 15 19 -24 29 0
2 -4 6 12 -19 26 -29 0
13 -19 -24 25 26 27 30 0
-4 5 -9 -11 14 17 -26 0
5 9 12 15 18 21 25 0
-7 -9 -13 -15 -24 -25 -28 0
1 -4 -6 14 -16 18 27 0
-12 13 14 -16 19 -23 24 0
-6 9 -14 -24 -25 -28 -30 0
-2 -3 -4 8 -14 -22 30 0
5 -6 12 -16 20 -21 26 0
-7 9 -10 -14 -23 28 29 0
2 -6 -7 17 20 -29 -30 0
-5 12 -17 -18 23 24 -25 0
-2 -3 -7 11 12 -15 -19 0
-8 11 -12 -14 20 -26 27 0
5 -9 14 -16 -21 22 -28 0
4 -11 -18 -21 -23 -24 30 0
-5 11 -14 -23 27 -28 30 0
-5 -7 11 14 16 -25 28 0
-2 4 -6 8 10 -14 -30 0
-2 4 -6 7 14 -17 -27 0
-8 -9 12 17 18 25 30 0
1 4 6 -16 -24 27 29 0
-10 -12 -13 -15 16 -24 25 0
-2 6 12 -13 -20 -23 -28 0
-7 -8 -9 11 -16 -24 25 0
-4 6 -16 -17 -19 21 28 0
1 -4 5 -6 14 17 18 0
1 -6 -8 9 -18 -23 25 0
2 3 -9 12 -18 26 -27 0
-1 -9 -10 14 -18 -19 23 0
-4 -5 11 -12 13 -14 15 0
2 -6 9 15 20 -22 30 0
-8 -10 11 -13 -15 18 -20 0
-9 10 12 14 17 -18 28 0
-2 -4 -9 13 -15 -19 -27 0
-11 -18 -19 -20 21 25 -28 0
2 3 4 -6 -8 9 -22 0
-1 -4 9 11 -21 22 25 0
6 -8 9 18 -20 24 -30 0
6 9 10 -20 -27 28 -30 0
-1 -7 -8 -9 22 -27 -30 0
-9 13 16 -17 -18 -27 -30 0
-7 8 10 -14 -19 -24 -26 0
